NAME : X_18_seed_123_id_0
TYPE : CVRP
DIMENSION : 181
EDGE_WEIGHT_TYPE : EUC_2D
CAPACITY : 8
NODE_COORD_SECTION
1	510	365
2	382	322
3	988	98
4	742	17
5	595	106
6	123	569
7	214	737
8	411	290
9	129	555
10	319	340
11	58	493
12	393	207
13	759	14
14	606	165
15	533	158
16	340	770
17	911	101
18	281	811
19	369	338
20	953	100
21	219	786
22	292	751
23	175	728
24	396	362
25	428	285
26	510	411
27	140	797
28	555	37
29	141	664
30	386	316
31	212	528
32	955	134
33	345	338
34	883	39
35	995	125
36	431	374
37	983	109
38	286	543
39	602	34
40	887	130
41	325	260
42	993	94
43	160	729
44	450	59
45	721	187
46	388	300
47	633	91
48	402	317
49	480	302
50	659	140
51	358	348
52	757	32
53	797	19
54	534	87
55	865	265
56	192	775
57	887	154
58	634	216
59	530	7
60	141	526
61	58	568
62	600	207
63	233	690
64	389	335
65	929	29
66	240	688
67	295	803
68	137	519
69	994	88
70	887	23
71	146	414
72	209	793
73	646	29
74	178	771
75	99	609
76	655	53
77	971	127
78	752	39
79	737	4
80	942	47
81	39	831
82	555	100
83	164	757
84	40	460
85	676	74
86	945	395
87	931	87
88	311	274
89	412	468
90	955	93
91	564	174
92	219	823
93	393	283
94	161	691
95	388	353
96	149	676
97	192	520
98	158	610
99	601	113
100	218	736
101	200	788
102	733	13
103	119	593
104	173	536
105	598	180
106	862	162
107	132	553
108	490	236
109	578	113
110	374	315
111	31	630
112	626	109
113	204	732
114	230	755
115	421	304
116	591	71
117	542	219
118	206	713
119	597	97
120	215	794
121	670	103
122	237	754
123	723	21
124	732	73
125	354	285
126	64	604
127	418	379
128	83	475
129	348	761
130	177	429
131	626	51
132	275	833
133	545	83
134	228	786
135	660	17
136	608	101
137	117	540
138	843	86
139	587	230
140	238	447
141	601	43
142	831	158
143	171	605
144	223	820
145	206	679
146	207	696
147	837	1
148	422	275
149	263	772
150	49	560
151	388	274
152	265	726
153	203	421
154	128	605
155	281	756
156	237	726
157	204	547
158	657	24
159	146	801
160	76	566
161	146	543
162	142	789
163	615	74
164	594	30
165	998	95
166	111	672
167	152	518
168	772	29
169	357	306
170	98	514
171	93	684
172	182	663
173	815	106
174	382	379
175	992	104
176	569	160
177	143	562
178	534	116
179	184	819
180	604	60
181	694	232
DEMAND_SECTION
1	0
2	1
3	1
4	1
5	1
6	1
7	1
8	1
9	1
10	1
11	1
12	1
13	1
14	1
15	1
16	1
17	1
18	1
19	1
20	1
21	1
22	1
23	1
24	1
25	1
26	1
27	1
28	1
29	1
30	1
31	1
32	1
33	1
34	1
35	1
36	1
37	1
38	1
39	1
40	1
41	1
42	1
43	1
44	1
45	1
46	1
47	1
48	1
49	1
50	1
51	1
52	1
53	1
54	1
55	1
56	1
57	1
58	1
59	1
60	1
61	1
62	1
63	1
64	1
65	1
66	1
67	1
68	1
69	1
70	1
71	1
72	1
73	1
74	1
75	1
76	1
77	1
78	1
79	1
80	1
81	1
82	1
83	1
84	1
85	1
86	1
87	1
88	1
89	1
90	1
91	1
92	1
93	1
94	1
95	1
96	1
97	1
98	1
99	1
100	1
101	1
102	1
103	1
104	1
105	1
106	1
107	1
108	1
109	1
110	1
111	1
112	1
113	1
114	1
115	1
116	1
117	1
118	1
119	1
120	1
121	1
122	1
123	1
124	1
125	1
126	1
127	1
128	1
129	1
130	1
131	1
132	1
133	1
134	1
135	1
136	1
137	1
138	1
139	1
140	1
141	1
142	1
143	1
144	1
145	1
146	1
147	1
148	1
149	1
150	1
151	1
152	1
153	1
154	1
155	1
156	1
157	1
158	1
159	1
160	1
161	1
162	1
163	1
164	1
165	1
166	1
167	1
168	1
169	1
170	1
171	1
172	1
173	1
174	1
175	1
176	1
177	1
178	1
179	1
180	1
181	1
DEPOT_SECTION
1
-1
EOF
